rc2_10_2

VEHICLE
NUMBER   CAPACITY
250     1000

CUSTOMER
CUST NO. XCOORD.  YCOORD.  DEMAND  READY TIME DUE DATE  SERVICE TIME

0   250    250     0     0    7284     0
641 159 299 12 4062 4182 10
818 133 273 20 0 7155 10
7 133 202 33 1842 1962 10
6 175 239 23 0 7199 10
14 102 264 10 535 655 10
979 131 246 17 0 7155 10
304 100 266 20 586 706 10
955 153 235 10 333 453 10
508 134 211 35 482 602 10
799 146 188 6 0 7153 10
562 120 261 5 3173 3293 10
189 149 214 7 0 7167 10
302 157 269 31 0 7180 10
199 148 208 22 2106 2226 10
817 130 247 17 0 7154 10
538 166 247 1 276 396 10
